SCIP Status        : solving was interrupted [time limit reached]
Total Time         :    3600.04
  solving          :    3600.00
  presolving       :       1.36 (included in solving)
  reading          :       0.03
  copying          :       0.10 (6 #copies) (minimal 0.01, maximal 0.02, average 0.02)
Original Problem   :
  Problem name     : chp_shorttermplan2d
  Variables        : 3120 (0 binary, 528 integer, 0 implicit integer, 2592 continuous)
  Constraints      : 6838 initial, 6838 maximal
  Objective        : minimize, 48 non-zeros (abs.min = 1, abs.max = 1)
Presolved Problem  :
  Problem name     : t_chp_shorttermplan2d
  Variables        : 6112 (344 binary, 0 integer, 200 implicit integer, 5568 continuous)
  Constraints      : 4954 initial, 5000 maximal
  Objective        : minimize, 1648 non-zeros (abs.min = 0.1, abs.max = 8020)
  Nonzeros         : 13848 constraint, 2 clique table
Presolvers         :   ExecTime  SetupTime  Calls  FixedVars   AggrVars   ChgTypes  ChgBounds   AddHoles    DelCons    AddCons   ChgSides   ChgCoefs
  boundshift       :       0.00       0.00      0          0          0          0          0          0          0          0          0          0
  convertinttobin  :       0.00       0.00      0          0          0          0          0          0          0          0          0          0
  domcol           :       0.00       0.00      7          0          0          0          0          0          0          0          0          0
  dualagg          :       0.00       0.00      0          0          0          0          0          0          0          0          0          0
  dualcomp         :       0.00       0.00      7          0          0          0          0          0          0          0          0          0
  dualinfer        :       0.00       0.00      0          0          0          0          0          0          0          0          0          0
  dualsparsify     :       0.00       0.00      2          0          0          0          0          0          0          0          0          0
  gateextraction   :       0.00       0.00      0          0          0          0          0          0          0          0          0          0
  implics          :       0.00       0.00      9          0          0          0          0          0          0          0          0          0
  inttobinary      :       0.00       0.00      0          0          0          0          0          0          0          0          0          0
  qpkktref         :       0.00       0.00      0          0          0          0          0          0          0          0          0          0
  redvub           :       0.00       0.00      0          0          0          0          0          0          0          0          0          0
  sparsify         :       0.00       0.00      1          0          0          0          0          0          0          0          0          0
  stuffing         :       0.00       0.00      0          0          0          0          0          0          0          0          0          0
  trivial          :       0.00       0.00     20        336          0          0          0          0          0          0          0          0
  tworowbnd        :       0.00       0.00      0          0          0          0          0          0          0          0          0          0
  dualfix          :       0.00       0.00     20        232          0          0          0          0          0          0          0          0
  genvbounds       :       0.00       0.00      0          0          0          0          0          0          0          0          0          0
  probing          :       0.08       0.00      6          0        184          0         96          0          0          0          0          0
  pseudoobj        :       0.00       0.00      0          0          0          0          0          0          0          0          0          0
  symmetry         :       0.04       0.00      1          0          0          0          0          0          0          4          0          0
  vbounds          :       0.00       0.00      0          0          0          0          0          0          0          0          0          0
  varbound         :       0.01       0.00     23          0          0          0         54          0          0          0          0          0
  knapsack         :       0.00       0.00      0          0          0          0          0          0          0          0          0          0
  setppc           :       0.00       0.00      0          0          0          0          0          0          0          0          0          0
  linear           :       0.04       0.00     29          0         96          0         96          0       1936         48          0         60
  orbitope         :       0.00       0.00      1          0          0          0          0          0          0          0          0          0
  logicor          :       0.01       0.00     30          0          0          0          0          0          0          0          0          0
  nonlinear        :       1.16       0.03     36          0          0          0         96          0          0        -52          0        -60
  benders          :       0.00       0.00      0          0          0          0          0          0          0          0          0          0
  components       :       0.00       0.00      1          0          0          0          0          0          0          0          0          0
  root node        :          -          -      -          0          -          -       1344          -          -          -          -          -
Constraints        :     Number  MaxNumber  #Separate #Propagate    #EnfoLP    #EnfoRelax  #EnfoPS    #Check   #ResProp    Cutoffs    DomReds       Cuts    Applied      Conss   Children
  benderslp        :          0          0          0          0       4742          0        647       1490          0          0          0          0          0          0          0
  integral         :          0          0          0          0       4742          0          0       1490          0          0      15730          0          0          0       5432
  varbound         :       2112       2112          9     154282          0          0        647       1485          4          0      30487          0          0          0          0
  knapsack         :          0+         8          0      12047          0          0          0          0          3          0         53          0          0          0          0
  setppc           :          0+         1          0      18253          0          0          0          0          0          0         19          0          0          0          0
  linear           :       1158+      1160          9     154282          0          0          0          6        106        134      23719          0          0          0          0
  orbitope         :          4          4          0     152223          0          0          0          4          5          0        301          0          0          0          0
  logicor          :        336+       373          9      18084          0          0        647          4         31         12        782          0          0          0          0
  nonlinear        :       1344       1344       8846     154136          0          0        647          4          0         49      45899    1099151     218990          0          0
  benders          :          0          0          0          0          0          0        647          3          0          0          0          0          0          0          0
  countsols        :          0          0          0          0          0          0        647          3          0          0          0          0          0          0          0
  components       :          0          0          0          0          0          0          0          0          0          0          0          0          0          0          0
Constraint Timings :  TotalTime  SetupTime   Separate  Propagate     EnfoLP     EnfoPS     EnfoRelax   Check    ResProp    SB-Prop
  benderslp        :       0.00       0.00       0.00       0.00       0.00       0.00       0.00       0.00       0.00       0.00
  integral         :     707.73       0.00       0.00       0.00     707.73       0.00       0.00       0.00       0.00       0.00
  varbound         :       0.47       0.00       0.00       0.22       0.00       0.04       0.00       0.07       0.00       0.13
  knapsack         :       0.00       0.00       0.00       0.00       0.00       0.00       0.00       0.00       0.00       0.00
  setppc           :       0.00       0.00       0.00       0.00       0.00       0.00       0.00       0.00       0.00       0.00
  linear           :       0.55       0.00       0.01       0.25       0.00       0.00       0.00       0.00       0.00       0.29
  orbitope         :       0.53       0.00       0.00       0.50       0.00       0.00       0.00       0.00       0.00       0.02
  logicor          :       0.12       0.00       0.00       0.04       0.00       0.06       0.00       0.00       0.00       0.02
  nonlinear        :     176.79       0.03     163.72       9.63       0.00       1.39       0.00       0.01       0.00       2.02
  benders          :       0.00       0.00       0.00       0.00       0.00       0.00       0.00       0.00       0.00       0.00
  countsols        :       0.00       0.00       0.00       0.00       0.00       0.00       0.00       0.00       0.00       0.00
  components       :       0.01       0.00       0.00       0.01       0.00       0.00       0.00       0.00       0.00       0.00
Propagators        : #Propagate   #ResProp    Cutoffs    DomReds
  dualfix          :          2          0          0          0
  genvbounds       :          0          0          0          0
  nlobbt           :          0          0          0          0
  obbt             :          0          0          0          0
  probing          :          0          0          0          0
  pseudoobj        :      28449          0          0          0
  redcost          :      18960          0          0       5678
  rootredcost      :          0          0          0          0
  symmetry         :          0          0          0          0
  vbounds          :      38407          0          0          0
Propagator Timings :  TotalTime  SetupTime   Presolve  Propagate    ResProp    SB-Prop
  dualfix          :       0.00       0.00       0.00       0.00       0.00       0.00
  genvbounds       :       0.03       0.00       0.00       0.02       0.00       0.01
  nlobbt           :       0.00       0.00       0.00       0.00       0.00       0.00
  obbt             :       0.00       0.00       0.00       0.00       0.00       0.00
  probing          :       0.08       0.00       0.08       0.00       0.00       0.00
  pseudoobj        :       0.33       0.00       0.00       0.33       0.00       0.00
  redcost          :       3.25       0.00       0.00       3.25       0.00       0.00
  rootredcost      :       0.02       0.00       0.00       0.01       0.00       0.01
  symmetry         :       0.06       0.00       0.04       0.01       0.00       0.00
  vbounds          :       0.07       0.00       0.00       0.05       0.00       0.02
Orbital fixing     :
  vars fixed to 0  :          0
  vars fixed to 1  :          0
Conflict Analysis  :       Time      Calls    Success    DomReds  Conflicts   Literals    Reconvs ReconvLits   Dualrays   Nonzeros   LP Iters   (pool size: [10000,10000])
  propagation      :       0.00         20         19          -         28        6.6          1        2.0          -          -          -
  infeasible LP    :       0.01         11         11          -         11        6.8          0        0.0         11       13.7          0
  bound exceed. LP :      15.98       1893          0          -          0        0.0          0        0.0          0        0.0          0
  strong branching :       0.00          0          0          -          0        0.0          0        0.0          -          -          0
  pseudo solution  :       0.00          0          0          -          0        0.0          0        0.0          -          -          -
  applied globally :       0.00          -          -          0         39        6.4          -          -         10          -          -
  applied locally  :          -          -          -          0          0        0.0          -          -          1          -          -
Separators         :   ExecTime  SetupTime      Calls  RootCalls    Cutoffs    DomReds  FoundCuts ViaPoolAdd  DirectAdd    Applied ViaPoolApp  DirectApp      Conss
  cut pool         :       0.52          -       1601         17          -          -      18914      23947          -          -          -          -          -    (maximal pool size:       5211)
  aggregation      :       1.91       0.00        250          9          0          0       1813       3590          3        755        755          0          0
  > cmir           :          -          -          -          -          -          -          -       2632          3        591        591          0          -
  > flowcover      :          -          -          -          -          -          -          -        958          0        164        164          0          -
  > knapsackcover  :          -          -          -          -          -          -          -          0          0          0          0          0          -
  cgmip            :       0.00       0.00          0          0          0          0          0          0          0          0          0          0          0
  clique           :       0.00       0.00          1          1          0          0          0          0          0          0          0          0          0
  closecuts        :       0.00       0.00          0          0          0          0          0          0          0          0          0          0          0
  convexproj       :       0.00       0.00          0          0          0          0          0          0          0          0          0          0          0
  disjunctive      :       0.00       0.00          0          0          0          0          0          0          0          0          0          0          0
  eccuts           :       0.00       0.00          0          0          0          0          0          0          0          0          0          0          0
  gauge            :       0.00       0.00          0          0          0          0          0          0          0          0          0          0          0
  gomory           :       6.69       0.00        185          9          0          0       8975       9251          0       2715       2715          0          0
  > gomorymi       :          -          -          -          -          -          -          -       9138          0       2676       2676          0          -
  > strongcg       :          -          -          -          -          -          -          -        113          0         39         39          0          -
  impliedbounds    :       0.09       0.00        250          9          0          0       2296       1425          0        185        185          0          0
  interminor       :       0.00       0.00          0          0          0          0          0          0          0          0          0          0          0
  intobj           :       0.00       0.00          0          0          0          0          0          0          0          0          0          0          0
  mcf              :       0.00       0.00          2          1          0          0          0          0          0          0          0          0          0
  minor            :       0.10       0.00        291          9          0          0       2865          0       2865       2110          0       2110          0
  mixing           :       0.12       0.00        250          9          0          0       4892       6753          0       2294       2294          0          0
  oddcycle         :       0.00       0.00          0          0          0          0          0          0          0          0          0          0          0
  rapidlearning    :       0.00       0.00          0          0          0          0          0          0          0          0          0          0          0
  rlt              :       0.01       0.00          9          9          0          0          0          0          0          0          0          0          0
  zerohalf         :       0.61       0.00        185          9          0          0        939       2928          0       1358       1358          0          0
Cutselectors       :   ExecTime  SetupTime      Calls  RootCalls   Selected     Forced   Filtered  RootSelec   RootForc   RootFilt 
  hybrid           :       1.80       0.00       8854          9     724920          0     401046       2642          0       2734
Pricers            :   ExecTime  SetupTime      Calls       Vars
  problem variables:       0.00          -          0          0
Branching Rules    :   ExecTime  SetupTime   BranchLP  BranchExt   BranchPS    Cutoffs    DomReds       Cuts      Conss   Children
  allfullstrong    :       0.00       0.00          0          0          0          0          0          0          0          0
  cloud            :       0.00       0.00          0          0          0          0          0          0          0          0
  distribution     :       0.00       0.00          0          0          0          0          0          0          0          0
  fullstrong       :       0.00       0.00          0          0          0          0          0          0          0          0
  inference        :       0.00       0.00          0          0          0          0          0          0          0          0
  leastinf         :       0.00       0.00          0          0          0          0          0          0          0          0
  lookahead        :       0.00       0.00          0          0          0          0          0          0          0          0
  mostinf          :       0.00       0.00          0          0          0          0          0          0          0          0
  multaggr         :       0.00       0.00          0          0          0          0          0          0          0          0
  nodereopt        :       0.00       0.00          0          0          0          0          0          0          0          0
  pscost           :       0.17       0.00          0        647          0          0          0          0          0       1294
  random           :       0.00       0.00          0          0          0          0          0          0          0          0
  relpscost        :     707.72       0.00       4742          0          0          0      15730          0          0       5432
  vanillafullstrong:       0.00       0.00          0          0          0          0          0          0          0          0
Primal Heuristics  :   ExecTime  SetupTime      Calls      Found       Best
  LP solutions     :       0.00          -          -          0          0
  relax solutions  :       0.00          -          -          0          0
  pseudo solutions :       0.00          -          -          0          0
  strong branching :       0.04          -          -          0          0
  actconsdiving    :       0.00       0.00          0          0          0
  adaptivediving   :      13.56       0.00         22          0          0
  alns             :       0.12       0.00          5          0          0
  bound            :       0.00       0.00          0          0          0
  clique           :       0.00       0.00          0          0          0
  coefdiving       :       0.00       0.00          0          0          0
  completesol      :       0.00       0.00          0          0          0
  conflictdiving   :       7.79       0.00         21          0          0
  crossover        :       0.00       0.00          0          0          0
  dins             :       0.00       0.00          0          0          0
  distributiondivin:      11.76       0.00         21          0          0
  dps              :       0.00       0.00          0          0          0
  dualval          :       0.00       0.00          0          0          0
  farkasdiving     :       0.00       0.00          0          0          0
  feaspump         :      15.47       0.00         10          0          0
  fixandinfer      :       0.00       0.00          0          0          0
  fracdiving       :       8.13       0.00         21          0          0
  gins             :      29.27       0.00          3          1          0
  guideddiving     :       0.35       0.00          1          0          0
  indicator        :       0.01       0.00          0          0          0
  indicatordiving  :       0.00       0.00          0          0          0
  intdiving        :       0.00       0.00          0          0          0
  intshifting      :       0.04       0.00         16          0          0
  linesearchdiving :       4.40       0.00         20          0          0
  localbranching   :       0.00       0.00          0          0          0
  locks            :       0.06       0.00          1          0          0
  lpface           :       0.00       0.00          0          0          0
  mpec             :     113.40       0.00         11          0          0
  multistart       :       0.00       0.00          0          0          0
  mutation         :       0.00       0.00          0          0          0
  nlpdiving        :      12.82       0.00          7          0          0
  objpscostdiving  :      13.71       0.00         11          0          0
  octane           :       0.00       0.00          0          0          0
  ofins            :       0.00       0.00          0          0          0
  oneopt           :       0.01       0.00          1          0          0
  padm             :       0.00       0.00          0          0          0
  proximity        :       0.00       0.00          0          0          0
  pscostdiving     :       9.85       0.00         21          0          0
  randrounding     :       0.31       0.00       1482          0          0
  rens             :       0.00       0.00          0          0          0
  reoptsols        :       0.00       0.00          0          0          0
  repair           :       0.00       0.00          0          0          0
  rins             :       0.00       0.00          0          0          0
  rootsoldiving    :      31.51       0.00         11          0          0
  rounding         :       1.06       0.00       1461          0          0
  shiftandpropagate:       0.01       0.00          1          0          0
  shifting         :       4.39       0.00        706          0          0
  simplerounding   :       0.01       0.00          0          0          0
  subnlp           :       2.42       0.00          1          1          1
  trivial          :       0.01       0.00          2          0          0
  trivialnegation  :       0.00       0.00          0          0          0
  trustregion      :       0.00       0.00          0          0          0
  trysol           :       0.00       0.00          0          0          0
  twoopt           :       0.00       0.00          0          0          0
  undercover       :       0.11       0.00          1          0          0
  vbounds          :       0.00       0.00          0          0          0
  veclendiving     :       7.57       0.00         21          0          0
  zeroobj          :       0.00       0.00          0          0          0
  zirounding       :       0.86       0.00       1000          0          0
  other solutions  :          -          -          -          0          -
Expressions        :   #IntEval  IntEvalTi   #RevProp  RevPropTi    DomReds    Cutoffs  #Estimate  EstimTime  Branching  #Simplify SimplifyTi Simplified
  pow              :    1765550       0.36       6053       0.00          0          0    4055289       0.29          0       5222       0.00          0
  prod             :     386359       0.12       4269       0.00        346          0    4665356      32.65          0      13276       0.03       8304
  sum              :      49726       0.02          0       0.00          0          0     586989       0.03          0      15318       0.03       5152
  val              :          0       0.00          0       0.00          0          0          0       0.00          0          0       0.00          0
  var              :    4947447       0.27          0       0.00          0          0          0       0.00          0      23028       0.00        736
  varidx           :          0       0.00          0       0.00          0          0          0       0.00          0          0       0.00          0
Nlhdlrs            :    Detects  DetectAll DetectTime   #IntEval  IntEvalTi   #RevProp  RevPropTi    DomReds    Cutoffs   #Enforce   EnfoTime       Cuts  Branching
  soc              :          0          0       0.00          0       0.00          0       0.00          0          0          0       0.00          0          0
  convex           :          0          0       0.01          0       0.00          0       0.00          0          0          0       0.00          0          0
  concave          :          0          0       0.01          0       0.00          0       0.00          0          0          0       0.00          0          0
  signomial        :        864        864       0.00          0       0.00          0       0.00          0          0    6343504       1.01        156          0
  quotient         :          0          0       0.00          0       0.00          0       0.00          0          0          0       0.00          0          0
  quadratic        :       1344      49728       0.08    1577581       2.06    1481355       2.70      33151          0          0       0.00          0          0
  default          :       5720     109452       0.02    2131474       0.61      27886       0.01        346          4    9306770      43.15     840073          0
  bilinear         :        240        240       0.00          0       0.00          0       0.00          0          0     190631       0.03          0          0
  perspective      :        480        480       0.01          0       0.00          0       0.00         17          0    1632353      83.76     517844          0
LP                 :       Time      Calls Iterations  Iter/call   Iter/sec  Time-0-It Calls-0-It    ItLimit
  primal LP        :     810.74       2917    4563791   36220.56    5629.14     297.58       2791
  dual LP          :    1542.93      17649   13090459     838.54    8484.14      11.93       2038
  lex dual LP      :       0.00          0          0       0.00          -
  barrier LP       :       0.00          0          0       0.00          -       0.00          0
  resolve instable :     528.99        288    4840711   16808.02    9150.87
  diving/probing LP:     185.53        907    1495135    1648.44    8058.83
  strong branching :     586.87       6211    1657500     266.87    2824.29          -          -       2653
    (at root node) :          -          0          0       0.00          -
  conflict analysis:       0.00          0          0       0.00          -
NLP relaxation     :
  solve time       :      12.79 (9 calls)
  convexity        :  nonconvex (3606 linear rows, 0 convex ineq., 1344 nonconvex ineq., 0 nonlinear eq. or two-sided ineq.)
NLP Solvers        :  #Problems  ProblemTi    #Solves  SolveTime      #Iter  Time/Iter      #Okay #TimeLimit #IterLimit #LObjLimit #Interrupt  #NumError #EvalError  #OutOfMem #LicenseEr #OtherTerm   #GlobOpt    #LocOpt  #Feasible #LocInfeas #GlobInfea #Unbounded   #Unknown
  ipopt            :         13       0.93         21     126.97       2522       0.05         18          0          3          0          0          0          0          0          0          0          0          5          1          7          0          0          8
B&B Tree           :
  number of runs   :          1
  nodes            :       3899 (3363 internal, 536 leaves)
  feasible leaves  :          0
  infeas. leaves   :         20
  objective leaves :        515
  nodes (total)    :       3899 (3363 internal, 536 leaves)
  nodes left       :        361
  max depth        :        135
  max depth (total):        135
  backtracks       :        517 (13.3%)
  early backtracks :          0 (0.0%)
  nodes exc. ref.  :          0 (0.0%)
  delayed cutoffs  :          0
  repropagations   :         36 (224 domain reductions, 0 cutoffs)
  avg switch length:       4.33
  switching time   :     265.94
Root Node          :
  First LP value   : +2.26875258169143e+05
  First LP Iters   :       1632 (29885.18 Iter/sec)
  First LP Time    :       0.05
  Final Dual Bound : +3.42775706972615e+05
  Final Root Iters :      18903
  Root LP Estimate :                     -
Solution           :
  Solutions found  :          2 (1 improvements)
  First Solution   : +4.92485168723306e+05   (in run 1, after 2709 nodes, 2360.55 seconds, depth 76, found by <veclendiving>)
  Gap First Sol.   :      33.80 %
  Gap Last Sol.    :      33.80 %
  Primal Bound     : +4.92485168723306e+05   (in run 1, after 2709 nodes, 2360.55 seconds, depth 76, found by <veclendiving>)
  Dual Bound       : +3.70242814314432e+05
  Gap              :      33.02 %
Integrals          :      Total       Avg%
  primal-dual      :  267060.63      74.18
  primal-ref       :          -          - (not evaluated)
  dual-ref         :          -          - (not evaluated)
